c turning on binary mode checking
c parsing input formula with 202048 variables and 780990 clauses
c finished parsing, read 2508305 bytes from proof file
c detected empty clause; start verification via backward checking
c 6482 of 780990 clauses in core                            
c 2033 of 97811 lemmas in core using 47314 resolution steps
c 0 RAT lemmas in core; 313 redundant literals in core lemmas
s VERIFIED
c verification time: 1.093 seconds
